11
0 43 49 2 25 52 91 69 63 20 47 
9 0 62 39 41 92 52 68 17 64 99 
100 2 0 51 38 44 9 38 28 78 58 
64 92 7 0 55 77 64 78 59 72 30 
58 84 36 72 0 79 64 14 15 42 36 
28 58 36 58 88 0 36 6 5 48 87 
22 23 32 99 52 30 0 85 66 82 98 
65 1 36 18 98 19 65 0 56 11 72 
2 10 61 65 7 51 6 54 0 3 34 
92 16 91 49 80 56 4 100 17 0 75 
85 9 15 28 86 40 70 35 55 98 0 
